c Instancia generada aleatoriamente
p edge 50 642
e 1 5
e 1 9
e 1 10
e 1 12
e 1 15
e 1 16
e 1 17
e 1 18
e 1 20
e 1 25
e 1 27
e 1 30
e 1 31
e 1 32
e 1 33
e 1 35
e 1 37
e 1 42
e 1 43
e 1 47
e 1 50
e 2 3
e 2 4
e 2 5
e 2 10
e 2 11
e 2 12
e 2 13
e 2 14
e 2 17
e 2 18
e 2 24
e 2 25
e 2 26
e 2 27
e 2 28
e 2 29
e 2 32
e 2 33
e 2 34
e 2 35
e 2 36
e 2 37
e 2 43
e 2 44
e 2 45
e 2 46
e 3 4
e 3 5
e 3 6
e 3 14
e 3 17
e 3 18
e 3 21
e 3 22
e 3 23
e 3 26
e 3 29
e 3 30
e 3 31
e 3 33
e 3 37
e 3 40
e 3 41
e 3 43
e 3 46
e 3 47
e 3 48
e 4 5
e 4 6
e 4 7
e 4 9
e 4 10
e 4 12
e 4 13
e 4 18
e 4 23
e 4 24
e 4 29
e 4 32
e 4 34
e 4 38
e 4 42
e 4 46
e 4 47
e 5 6
e 5 9
e 5 10
e 5 11
e 5 12
e 5 14
e 5 16
e 5 17
e 5 18
e 5 19
e 5 21
e 5 22
e 5 24
e 5 25
e 5 26
e 5 30
e 5 33
e 5 35
e 5 37
e 5 40
e 5 42
e 5 45
e 5 46
e 5 49
e 5 50
e 6 8
e 6 9
e 6 10
e 6 12
e 6 13
e 6 20
e 6 21
e 6 26
e 6 31
e 6 33
e 6 34
e 6 38
e 6 39
e 6 41
e 6 43
e 6 46
e 6 47
e 6 48
e 7 10
e 7 13
e 7 15
e 7 18
e 7 20
e 7 21
e 7 22
e 7 23
e 7 27
e 7 29
e 7 30
e 7 31
e 7 32
e 7 34
e 7 37
e 7 38
e 7 39
e 7 40
e 7 43
e 7 45
e 7 47
e 7 48
e 7 50
e 8 9
e 8 10
e 8 11
e 8 12
e 8 13
e 8 17
e 8 18
e 8 20
e 8 21
e 8 22
e 8 23
e 8 24
e 8 25
e 8 27
e 8 28
e 8 29
e 8 30
e 8 31
e 8 32
e 8 34
e 8 41
e 8 42
e 8 43
e 8 45
e 8 46
e 8 47
e 8 48
e 8 49
e 8 50
e 9 11
e 9 12
e 9 15
e 9 17
e 9 18
e 9 21
e 9 22
e 9 26
e 9 27
e 9 28
e 9 29
e 9 30
e 9 31
e 9 32
e 9 36
e 9 38
e 9 39
e 9 41
e 9 43
e 9 48
e 9 49
e 9 50
e 10 16
e 10 17
e 10 18
e 10 19
e 10 26
e 10 27
e 10 30
e 10 31
e 10 34
e 10 35
e 10 36
e 10 37
e 10 41
e 10 42
e 10 43
e 10 45
e 10 47
e 11 13
e 11 14
e 11 15
e 11 16
e 11 17
e 11 19
e 11 20
e 11 23
e 11 28
e 11 30
e 11 31
e 11 32
e 11 33
e 11 34
e 11 35
e 11 36
e 11 37
e 11 40
e 11 42
e 11 43
e 11 44
e 11 46
e 11 47
e 11 48
e 11 50
e 12 13
e 12 14
e 12 15
e 12 18
e 12 19
e 12 20
e 12 21
e 12 23
e 12 26
e 12 28
e 12 29
e 12 31
e 12 32
e 12 33
e 12 34
e 12 35
e 12 38
e 12 40
e 12 46
e 12 47
e 12 48
e 12 50
e 13 14
e 13 16
e 13 19
e 13 23
e 13 25
e 13 26
e 13 29
e 13 30
e 13 31
e 13 32
e 13 36
e 13 37
e 13 39
e 13 41
e 13 43
e 13 45
e 13 46
e 13 47
e 13 50
e 14 16
e 14 22
e 14 24
e 14 27
e 14 28
e 14 30
e 14 32
e 14 34
e 14 35
e 14 36
e 14 37
e 14 40
e 14 41
e 14 43
e 14 45
e 14 47
e 15 16
e 15 19
e 15 22
e 15 23
e 15 24
e 15 26
e 15 29
e 15 30
e 15 31
e 15 32
e 15 34
e 15 35
e 15 37
e 15 38
e 15 39
e 15 41
e 15 42
e 15 43
e 15 44
e 15 45
e 15 47
e 15 48
e 15 50
e 16 18
e 16 19
e 16 21
e 16 22
e 16 23
e 16 27
e 16 29
e 16 31
e 16 32
e 16 35
e 16 37
e 16 46
e 16 49
e 17 18
e 17 20
e 17 21
e 17 23
e 17 25
e 17 26
e 17 27
e 17 28
e 17 30
e 17 31
e 17 32
e 17 34
e 17 35
e 17 36
e 17 38
e 17 39
e 17 40
e 17 43
e 17 44
e 17 45
e 17 49
e 18 19
e 18 20
e 18 21
e 18 25
e 18 26
e 18 31
e 18 32
e 18 33
e 18 35
e 18 36
e 18 37
e 18 38
e 18 39
e 18 41
e 18 42
e 18 43
e 18 45
e 18 47
e 18 50
e 19 25
e 19 28
e 19 29
e 19 30
e 19 32
e 19 35
e 19 37
e 19 38
e 19 41
e 19 42
e 19 43
e 19 45
e 19 46
e 19 47
e 19 49
e 20 21
e 20 23
e 20 24
e 20 28
e 20 29
e 20 30
e 20 34
e 20 38
e 20 39
e 20 41
e 20 43
e 21 22
e 21 24
e 21 25
e 21 29
e 21 30
e 21 31
e 21 32
e 21 35
e 21 37
e 21 39
e 21 40
e 21 41
e 21 42
e 21 43
e 21 48
e 21 49
e 22 26
e 22 27
e 22 28
e 22 29
e 22 30
e 22 31
e 22 33
e 22 35
e 22 36
e 22 37
e 22 38
e 22 40
e 22 41
e 22 44
e 22 46
e 22 47
e 22 49
e 22 50
e 23 24
e 23 25
e 23 28
e 23 34
e 23 36
e 23 39
e 23 40
e 23 41
e 23 45
e 23 46
e 23 47
e 23 49
e 23 50
e 24 27
e 24 31
e 24 32
e 24 37
e 24 38
e 24 39
e 24 40
e 24 41
e 24 43
e 24 44
e 24 45
e 24 48
e 24 49
e 25 26
e 25 27
e 25 28
e 25 32
e 25 33
e 25 34
e 25 35
e 25 37
e 25 40
e 25 41
e 25 43
e 25 45
e 25 46
e 25 48
e 25 49
e 25 50
e 26 28
e 26 29
e 26 30
e 26 31
e 26 32
e 26 33
e 26 34
e 26 35
e 26 36
e 26 37
e 26 39
e 26 41
e 26 42
e 26 44
e 26 45
e 26 46
e 26 47
e 27 28
e 27 34
e 27 35
e 27 39
e 27 41
e 27 45
e 27 46
e 27 47
e 28 31
e 28 32
e 28 33
e 28 34
e 28 37
e 28 39
e 28 40
e 28 43
e 28 46
e 28 47
e 28 48
e 28 49
e 29 31
e 29 32
e 29 35
e 29 36
e 29 37
e 29 38
e 29 39
e 29 40
e 29 41
e 29 43
e 29 45
e 29 46
e 29 47
e 29 48
e 29 49
e 30 32
e 30 34
e 30 36
e 30 37
e 30 38
e 30 40
e 30 42
e 30 48
e 30 49
e 30 50
e 31 32
e 31 33
e 31 34
e 31 36
e 31 39
e 31 41
e 31 42
e 31 43
e 31 44
e 31 45
e 31 46
e 31 47
e 31 48
e 31 49
e 31 50
e 32 34
e 32 36
e 32 37
e 32 39
e 32 41
e 32 43
e 32 44
e 32 45
e 32 47
e 32 48
e 33 35
e 33 36
e 33 37
e 33 42
e 33 43
e 33 44
e 33 45
e 33 50
e 34 38
e 34 41
e 34 43
e 34 44
e 34 45
e 34 48
e 34 49
e 34 50
e 35 36
e 35 37
e 35 40
e 35 41
e 35 43
e 35 44
e 35 45
e 35 46
e 35 47
e 35 49
e 35 50
e 36 37
e 36 43
e 36 44
e 36 45
e 36 46
e 36 47
e 37 39
e 37 42
e 37 43
e 37 44
e 37 46
e 38 39
e 38 40
e 38 41
e 38 47
e 38 48
e 38 50
e 39 40
e 39 42
e 39 43
e 39 44
e 39 47
e 39 48
e 39 49
e 39 50
e 40 42
e 40 46
e 40 48
e 41 43
e 41 44
e 41 45
e 41 46
e 41 49
e 42 44
e 42 45
e 42 50
e 43 45
e 44 48
e 44 49
e 44 50
e 45 46
e 45 48
e 45 49
e 46 49
e 46 50
e 47 48
e 47 50
e 48 49
e 48 50
